<number of tasks>
50

<cycle time>
1000

<order strength>
0.595


<task times>
1 231
2 327
3 531
4 107
5 131
6 44
7 286
8 313
9 49
10 123
11 48
12 189
13 327
14 161
15 551
16 271
17 132
18 245
19 278
20 225
21 467
22 266
23 138
24 51
25 551
26 28
27 126
28 222
29 236
30 295
31 312
32 22
33 263
34 400
35 106
36 337
37 241
38 94
39 142
40 176
41 147
42 141
43 187
44 176
45 186
46 106
47 419
48 472
49 136
50 224

<precedence relations>
1,5
2,7
3,6
3,8
3,9
4,15
5,12
6,11
7,10
8,12
8,13
8,14
8,15
9,12
9,13
9,14
9,15
10,16
11,17
12,17
12,18
12,19
13,17
13,18
13,19
14,17
14,18
14,19
15,17
15,18
15,19
16,20
17,21
17,22
18,21
18,22
19,21
19,22
20,23
21,24
21,25
21,26
22,24
22,25
22,26
23,28
24,27
24,29
24,30
24,31
24,32
25,29
25,30
25,31
25,32
26,29
26,30
26,31
26,32
27,34
28,36
29,33
29,35
29,37
29,38
29,41
30,37
30,38
31,37
31,45
32,38
32,45
32,47
33,39
34,41
35,40
36,41
37,42
37,47
37,49
38,42
38,49
39,45
40,43
41,45
41,46
41,47
42,44
43,49
44,48
45,50
46,49
46,50

<end>
